c Maximum weighted clique instances generated from exactcolors.
c cutoff: 23091222.
c A clique of value > scalef (23091222) defines an improving stable sets for coloring.
p edge 15 62
e 1 4
e 1 7
e 1 8
e 1 11
e 1 14
e 1 15
e 2 5
e 2 7
e 2 9
e 2 12
e 2 14
e 2 15
e 3 6
e 3 7
e 3 10
e 3 13
e 3 14
e 3 15
e 4 5
e 4 6
e 4 8
e 4 11
e 4 12
e 4 13
e 4 15
e 5 6
e 5 9
e 5 11
e 5 12
e 5 13
e 5 15
e 6 10
e 6 11
e 6 12
e 6 13
e 6 15
e 7 8
e 7 9
e 7 10
e 7 14
e 7 15
e 8 9
e 8 10
e 8 11
e 8 12
e 8 13
e 8 14
e 9 10
e 9 11
e 9 12
e 9 13
e 9 14
e 10 11
e 10 12
e 10 13
e 10 14
e 11 12
e 11 13
e 11 14
e 12 13
e 12 14
e 13 14
n 1 10775903
n 2 10775903
n 3 10775903
n 4 5387951
n 5 5387951
n 6 5387951
n 7 5387951
n 8 4618244
n 9 4618244
n 10 4618244
n 11 2309122
n 12 2309122
n 13 2309122
n 14 2309122
n 15 6927366
